p wcnf 178 210 211 
1 143 -110 0 
1 44 147 0 
1 -178 -48 0 
1 73 -6 0 
1 -21 -2 0 
1 -108 -104 0 
1 70 178 0 
1 37 86 0 
1 -138 15 0 
1 -20 -111 0 
1 92 -36 0 
1 129 69 0 
1 38 81 0 
1 7 81 0 
1 -129 -42 0 
1 2 43 0 
1 178 -166 0 
1 -14 -59 0 
1 -167 143 0 
1 38 110 0 
1 -127 -143 0 
1 81 17 0 
1 1 -55 0 
1 33 -115 0 
1 -100 -11 0 
1 117 178 0 
1 -138 135 0 
1 -157 110 0 
1 23 -11 0 
1 -38 -153 0 
1 41 152 0 
1 27 -177 0 
1 -166 -35 0 
1 -29 167 0 
1 171 16 0 
1 -33 -8 0 
1 -42 36 0 
1 -7 -75 0 
1 -51 47 0 
1 -39 178 0 
1 -6 47 0 
1 -151 50 0 
1 59 -133 0 
1 -120 -171 0 
1 -86 -38 0 
1 38 -138 0 
1 2 76 0 
1 -122 129 0 
1 -121 -89 0 
1 -112 -83 0 
1 96 -38 0 
1 105 -20 0 
1 35 -34 0 
1 136 -39 0 
1 123 50 0 
1 -56 -21 0 
1 -175 -34 0 
1 -119 82 0 
1 -54 -146 0 
1 -160 12 0 
1 -77 60 0 
1 -172 -1 0 
1 -146 164 0 
1 -96 -142 0 
1 -109 26 0 
1 -97 -126 0 
1 -32 -89 0 
1 -45 -78 0 
1 54 78 0 
1 -112 27 0 
1 41 -116 0 
1 -30 -155 0 
1 48 76 0 
1 -68 45 0 
1 154 165 0 
1 175 -83 0 
1 -169 53 0 
1 107 -71 0 
1 8 -23 0 
1 -30 81 0 
1 -144 -94 0 
1 -47 -12 0 
1 16 -123 0 
1 81 -6 0 
1 60 -146 0 
1 -143 83 0 
1 124 -38 0 
1 106 14 0 
1 55 171 0 
1 -29 -76 0 
1 114 127 0 
1 -160 -138 0 
1 116 -140 0 
1 -89 -143 0 
1 31 91 0 
1 -51 -66 0 
1 -129 96 0 
1 27 137 0 
1 -148 -15 0 
1 29 -90 0 
1 -60 9 0 
1 136 56 0 
1 -119 -21 0 
1 95 -47 0 
1 -41 -128 0 
1 -104 -167 0 
1 52 -145 0 
1 35 116 0 
1 -106 18 0 
1 113 49 0 
1 -18 -132 0 
1 -163 -62 0 
1 -115 155 0 
1 -132 -16 0 
1 50 -167 0 
1 -101 -165 0 
1 -167 166 0 
1 -102 29 0 
1 116 171 0 
1 125 -78 0 
1 22 -67 0 
1 -100 -9 0 
1 -4 68 0 
1 153 -78 0 
1 -56 62 0 
1 30 150 0 
1 -105 -46 0 
1 -116 -75 0 
1 -38 148 0 
1 -36 126 0 
1 119 6 0 
1 54 -125 0 
1 28 -49 0 
1 -171 67 0 
1 -47 15 0 
1 -17 134 0 
1 92 -83 0 
1 -158 27 0 
1 -149 70 0 
1 -165 64 0 
1 65 26 0 
1 -83 116 0 
1 -60 -27 0 
1 -125 17 0 
1 18 91 0 
1 170 -48 0 
1 -168 134 0 
1 127 -96 0 
1 92 -47 0 
1 137 58 0 
1 -126 94 0 
1 -123 124 0 
1 -76 104 0 
1 143 28 0 
1 -142 -67 0 
1 70 -107 0 
1 8 42 0 
1 -116 61 0 
1 22 -1 0 
1 -99 -4 0 
1 155 -47 0 
1 145 -88 0 
1 1 -54 0 
1 118 -22 0 
1 -144 -49 0 
1 43 86 0 
1 35 32 0 
1 79 102 0 
1 -148 -99 0 
1 -70 -133 0 
1 80 -136 0 
1 106 -159 0 
1 -33 134 0 
1 24 -154 0 
1 -62 14 0 
1 -106 157 0 
1 -92 5 0 
1 101 135 0 
1 155 84 0 
1 38 116 0 
1 -81 -135 0 
1 -36 -124 0 
1 -124 -75 0 
1 118 10 0 
1 44 63 0 
1 -111 85 0 
1 -54 -25 0 
1 135 103 0 
1 48 -10 0 
1 -107 -139 0 
1 -143 160 0 
1 51 97 0 
1 -4 13 0 
1 49 -66 0 
1 -86 6 0 
1 -166 52 0 
1 -125 24 0 
1 4 125 0 
1 -128 -80 0 
1 -104 -18 0 
1 22 -134 0 
1 31 -85 0 
1 -129 -119 0 
1 -58 107 0 
1 -105 -114 0 
1 -141 59 0 
1 114 10 0 
1 -97 53 0 
1 100 80 0 
1 -53 -10 0 
